20	5
0	10	5	4	6	3	7	8	1	2	10	9
1	2	20	21
2	1	13
3	2	20	15
4	1	13
5	1	11
6	2	11	17
7	2	16	12
8	0
9	1	14
10	1	18
11	1	12
12	1	19
13	1	18
14	1	20
15	1	16
16	1	19
17	0
18	1	16
19	1	21
20	1	21
21	0
0	0	0	0	0	0	0
1	8	3	3	2	1	0
2	5	0	0	5	2	1
3	1	3	2	5	1	3
4	3	2	0	3	2	4
5	2	3	5	4	4	3
6	1	3	2	4	4	4
7	2	0	4	5	0	0
8	6	0	0	2	1	2
9	8	0	0	3	0	0
10	10	3	4	4	2	5
11	4	4	3	3	0	0
12	2	0	5	1	0	4
13	10	3	4	4	4	4
14	5	0	0	3	4	1
15	6	2	4	3	1	5
16	8	2	5	5	1	4
17	5	0	4	0	0	0
18	10	1	0	4	2	0
19	7	5	5	4	3	4
20	2	4	5	1	3	3
21	0	0	0	0	0	0
10	10	16	11	12
